 Code  1131
 Dimension, Fixed Cost
   100        3000
 Facility, Client, Transportation Cost
     1       30           0
     1       35           2
     1       37           4
     1       44           2
     1       47           1
     1       50           4
     1       74           3
     1       94           4
     1       97           1
     1       99           4
     2        1           1
     2        3           1
     2       12           2
     2       27           1
     2       41           0
     2       58           1
     2       60           0
     2       66           4
     2       88           3
     2       90           1
     3        1           4
     3       16           4
     3       35           1
     3       36           3
     3       39           3
     3       45           0
     3       53           2
     3       60           3
     3       67           1
     3       74           4
     4        2           0
     4        4           3
     4       47           0
     4       54           3
     4       71           4
     4       74           3
     4       84           3
     4       94           3
     4       95           4
     4       97           0
     5        1           2
     5        7           1
     5       12           3
     5       25           1
     5       30           2
     5       39           2
     5       41           2
     5       78           4
     5       86           4
     5       91           2
     6        1           0
     6        3           4
     6       23           4
     6       41           2
     6       52           3
     6       59           1
     6       61           2
     6       70           3
     6       84           4
     6       95           1
     7       22           4
     7       23           3
     7       29           0
     7       45           4
     7       48           2
     7       59           2
     7       81           3
     7       84           0
     7       88           3
     7       99           2
     8        4           2
     8       17           4
     8       20           0
     8       22           2
     8       23           4
     8       29           2
     8       64           4
     8       82           2
     8       89           0
     8       96           4
     9       26           1
     9       41           2
     9       44           3
     9       57           2
     9       66           1
     9       69           4
     9       90           0
     9       91           0
     9       93           0
     9       97           3
    10        3           3
    10        7           0
    10       18           4
    10       19           0
    10       39           1
    10       51           3
    10       52           3
    10       64           3
    10       91           3
    10       95           3
    11        9           0
    11       19           2
    11       30           3
    11       35           1
    11       38           2
    11       48           3
    11       50           0
    11       66           1
    11       67           1
    11       91           1
    12        3           0
    12        5           2
    12       11           0
    12       29           2
    12       37           4
    12       52           4
    12       65           4
    12       77           0
    12       93           3
    12       96           3
    13       11           2
    13       44           3
    13       46           2
    13       50           2
    13       53           4
    13       58           0
    13       71           4
    13       75           1
    13       98           0
    13      100           0
    14        4           3
    14       33           0
    14       46           2
    14       53           3
    14       62           4
    14       67           0
    14       74           1
    14       76           3
    14       93           0
    14      100           3
    15       12           3
    15       13           0
    15       21           2
    15       22           1
    15       23           4
    15       41           2
    15       60           1
    15       68           3
    15       95           0
    15       97           0
    16       13           1
    16       35           2
    16       40           3
    16       46           2
    16       48           3
    16       51           1
    16       83           0
    16       85           2
    16       91           3
    16       98           1
    17        7           0
    17       25           4
    17       42           2
    17       43           1
    17       47           2
    17       69           1
    17       71           2
    17       80           4
    17       85           4
    17       99           1
    18        6           3
    18        9           1
    18       11           3
    18       18           2
    18       36           0
    18       76           0
    18       79           0
    18       84           1
    18       94           4
    18       95           2
    19        7           2
    19       18           3
    19       19           2
    19       22           3
    19       34           0
    19       45           3
    19       53           3
    19       58           2
    19       63           4
    19       65           3
    20        5           0
    20       23           1
    20       42           0
    20       47           2
    20       58           2
    20       60           4
    20       62           3
    20       68           2
    20       80           1
    20       87           1
    21        5           0
    21       11           0
    21       17           4
    21       49           3
    21       53           1
    21       65           2
    21       92           1
    21       93           4
    21       94           1
    21       96           1
    22       13           1
    22       38           2
    22       43           2
    22       48           4
    22       51           4
    22       53           4
    22       68           3
    22       82           3
    22       94           1
    22       96           4
    23       17           0
    23       19           3
    23       22           0
    23       37           2
    23       38           3
    23       39           3
    23       51           1
    23       71           4
    23       94           3
    23       98           2
    24       13           2
    24       26           3
    24       56           2
    24       58           1
    24       60           1
    24       64           1
    24       66           2
    24       69           3
    24       77           3
    24       78           3
    25        1           4
    25       19           0
    25       26           0
    25       30           0
    25       35           3
    25       45           0
    25       46           3
    25       50           2
    25       82           1
    25       87           4
    26        5           2
    26       18           3
    26       31           2
    26       35           1
    26       54           3
    26       59           1
    26       61           1
    26       80           0
    26       87           3
    26       99           2
    27        9           4
    27       12           4
    27       33           1
    27       37           4
    27       40           3
    27       44           1
    27       55           0
    27       66           2
    27       75           1
    27       90           1
    28        1           1
    28        6           4
    28       18           3
    28       54           3
    28       70           3
    28       78           4
    28       81           3
    28       89           1
    28       97           1
    28      100           4
    29        2           0
    29       11           0
    29       19           4
    29       26           2
    29       29           3
    29       30           3
    29       33           1
    29       67           0
    29       87           3
    29       94           3
    30       21           2
    30       23           0
    30       26           3
    30       48           3
    30       50           2
    30       51           3
    30       61           2
    30       77           4
    30       79           1
    30       94           0
    31       16           2
    31       18           2
    31       39           2
    31       41           4
    31       46           0
    31       54           1
    31       57           3
    31       65           2
    31       75           4
    31       99           2
    32       29           2
    32       35           0
    32       47           1
    32       50           4
    32       52           2
    32       55           4
    32       57           3
    32       81           0
    32       83           4
    32       97           3
    33        9           3
    33       15           3
    33       20           1
    33       24           2
    33       37           3
    33       38           0
    33       72           0
    33       79           3
    33       80           4
    33      100           3
    34        7           2
    34       11           1
    34       24           1
    34       32           2
    34       50           3
    34       59           2
    34       60           4
    34       66           1
    34       77           2
    34       95           1
    35        2           4
    35        4           1
    35        5           1
    35       12           0
    35       42           2
    35       53           2
    35       86           1
    35       89           0
    35       97           1
    35       98           1
    36       19           1
    36       48           3
    36       52           1
    36       66           0
    36       72           1
    36       77           0
    36       89           4
    36       95           1
    36       97           3
    36       98           4
    37       22           0
    37       24           2
    37       51           1
    37       58           2
    37       60           4
    37       73           0
    37       76           0
    37       83           4
    37       97           2
    37       99           1
    38        2           2
    38       19           4
    38       37           4
    38       49           4
    38       62           2
    38       63           0
    38       65           3
    38       70           2
    38       74           3
    38       83           0
    39        4           2
    39       27           4
    39       33           4
    39       40           0
    39       41           2
    39       44           3
    39       46           2
    39       59           2
    39       64           4
    39       94           2
    40       25           0
    40       38           4
    40       39           3
    40       40           1
    40       53           4
    40       55           1
    40       58           0
    40       75           1
    40       91           3
    40       93           3
    41        2           1
    41       12           2
    41       15           3
    41       22           4
    41       31           0
    41       43           0
    41       54           2
    41       84           1
    41       92           3
    41       95           3
    42       10           1
    42       12           2
    42       13           0
    42       21           3
    42       33           3
    42       47           3
    42       58           4
    42       70           4
    42       83           0
    42       92           0
    43       13           2
    43       38           3
    43       48           2
    43       52           0
    43       56           3
    43       58           4
    43       84           1
    43       88           4
    43       96           2
    43       98           2
    44        5           4
    44        6           0
    44       11           2
    44       15           1
    44       28           3
    44       32           2
    44       47           1
    44       52           3
    44       65           4
    44       82           4
    45       18           1
    45       20           1
    45       27           2
    45       28           0
    45       37           4
    45       60           2
    45       64           3
    45       78           4
    45       95           2
    45       99           0
    46        3           0
    46        7           4
    46       26           1
    46       30           1
    46       52           2
    46       60           2
    46       62           3
    46       65           3
    46       73           1
    46       94           1
    47        1           1
    47       18           0
    47       27           0
    47       28           3
    47       43           3
    47       60           0
    47       70           2
    47       71           0
    47       77           1
    47       87           1
    48       26           1
    48       43           3
    48       48           3
    48       51           4
    48       52           3
    48       61           3
    48       63           3
    48       65           0
    48       86           3
    48       90           3
    49       20           2
    49       35           4
    49       36           4
    49       45           4
    49       46           2
    49       52           1
    49       55           3
    49       64           1
    49       70           4
    49       79           0
    50       24           3
    50       27           1
    50       41           2
    50       54           3
    50       63           4
    50       64           2
    50       65           1
    50       81           4
    50       83           2
    50       88           3
    51       27           2
    51       33           2
    51       38           2
    51       41           4
    51       58           0
    51       65           4
    51       72           0
    51       78           3
    51       84           0
    51       87           3
    52       18           0
    52       21           4
    52       24           3
    52       30           4
    52       37           3
    52       39           3
    52       67           3
    52       82           4
    52       90           0
    52       95           2
    53        3           4
    53        5           0
    53       17           1
    53       24           1
    53       37           1
    53       57           0
    53       58           0
    53       69           1
    53       77           1
    53       82           1
    54        9           1
    54       31           1
    54       36           0
    54       41           0
    54       52           0
    54       60           2
    54       61           0
    54       69           0
    54       76           2
    54       96           1
    55       24           2
    55       46           1
    55       52           1
    55       59           1
    55       74           0
    55       78           4
    55       83           3
    55       87           1
    55       89           0
    55       91           0
    56        9           1
    56       35           1
    56       49           4
    56       50           3
    56       59           2
    56       69           1
    56       81           4
    56       88           4
    56       91           1
    56      100           1
    57        8           3
    57       24           3
    57       34           2
    57       51           3
    57       57           1
    57       58           1
    57       62           2
    57       79           2
    57       96           3
    57       97           2
    58        3           1
    58        4           3
    58       34           1
    58       43           0
    58       51           1
    58       60           2
    58       73           3
    58       74           1
    58       89           1
    58       98           1
    59       14           2
    59       29           1
    59       45           0
    59       62           0
    59       65           0
    59       71           2
    59       73           4
    59       80           1
    59       85           3
    59       97           0
    60        1           2
    60       15           3
    60       16           1
    60       24           4
    60       42           3
    60       51           3
    60       52           1
    60       61           0
    60       86           4
    60       89           0
    61       21           4
    61       31           4
    61       37           0
    61       38           3
    61       52           1
    61       53           1
    61       67           0
    61       90           1
    61       91           1
    61       95           3
    62        8           4
    62       29           1
    62       49           0
    62       50           1
    62       59           1
    62       68           1
    62       73           1
    62       79           4
    62       87           4
    62       93           0
    63       41           4
    63       45           2
    63       46           3
    63       53           1
    63       66           1
    63       70           4
    63       78           0
    63       90           0
    63       95           4
    63       99           0
    64       23           3
    64       26           2
    64       30           2
    64       33           4
    64       41           2
    64       58           4
    64       66           1
    64       67           0
    64       74           2
    64       96           0
    65        5           4
    65        8           4
    65        9           2
    65       14           0
    65       34           0
    65       35           3
    65       46           3
    65       48           3
    65       60           0
    65       91           1
    66       17           4
    66       20           1
    66       21           1
    66       37           0
    66       50           0
    66       51           4
    66       55           1
    66       60           0
    66       68           3
    66       99           4
    67        5           4
    67        7           0
    67       21           2
    67       25           2
    67       26           1
    67       35           1
    67       62           3
    67       69           3
    67       87           2
    67       93           1
    68       28           2
    68       38           3
    68       56           4
    68       66           4
    68       70           3
    68       73           1
    68       79           2
    68       83           2
    68       86           3
    68       99           1
    69        8           0
    69       21           4
    69       29           1
    69       30           0
    69       31           4
    69       34           0
    69       48           4
    69       55           3
    69       72           0
    69       79           2
    70       15           0
    70       23           2
    70       30           3
    70       34           3
    70       38           1
    70       52           1
    70       68           1
    70       70           0
    70       79           1
    70       87           0
    71        4           3
    71       13           1
    71       14           1
    71       22           0
    71       32           3
    71       34           3
    71       48           0
    71       70           2
    71       75           1
    71      100           3
    72        5           1
    72       17           1
    72       18           3
    72       46           0
    72       54           2
    72       55           1
    72       58           4
    72       65           3
    72       83           3
    72       91           1
    73        7           2
    73       16           2
    73       38           4
    73       41           3
    73       46           4
    73       51           4
    73       56           1
    73       57           0
    73       66           3
    73       85           4
    74       13           0
    74       26           4
    74       36           1
    74       41           3
    74       44           2
    74       48           2
    74       66           1
    74       74           4
    74       79           1
    74       90           0
    75        1           4
    75       23           3
    75       31           1
    75       52           2
    75       60           2
    75       65           1
    75       92           1
    75       95           0
    75       96           3
    75       98           3
    76        5           2
    76       14           2
    76       17           2
    76       26           0
    76       31           0
    76       48           0
    76       61           2
    76       71           2
    76       75           1
    76       84           0
    77        6           2
    77       15           2
    77       18           2
    77       20           1
    77       23           4
    77       46           3
    77       49           4
    77       56           1
    77       77           4
    77       80           4
    78       17           3
    78       25           0
    78       27           1
    78       29           4
    78       30           1
    78       36           4
    78       56           3
    78       96           3
    78       98           0
    78       99           0
    79        5           3
    79        6           4
    79       21           0
    79       24           0
    79       43           1
    79       45           4
    79       48           0
    79       78           1
    79       85           4
    79       88           3
    80        7           0
    80       24           4
    80       30           1
    80       36           1
    80       45           2
    80       61           2
    80       62           1
    80       69           1
    80       83           4
    80      100           1
    81       25           1
    81       31           2
    81       38           1
    81       41           2
    81       56           2
    81       58           0
    81       64           2
    81       73           1
    81       76           1
    81       94           2
    82        6           0
    82       15           4
    82       32           3
    82       34           3
    82       39           0
    82       43           3
    82       60           3
    82       73           1
    82       78           2
    82       90           4
    83       24           4
    83       33           1
    83       38           3
    83       42           3
    83       49           0
    83       52           3
    83       65           1
    83       74           4
    83       81           2
    83      100           4
    84        1           1
    84       12           2
    84       19           2
    84       40           1
    84       52           1
    84       63           4
    84       73           0
    84       92           3
    84       94           2
    84       98           2
    85        9           1
    85       10           3
    85       21           4
    85       32           1
    85       47           2
    85       49           4
    85       52           3
    85       63           2
    85       65           1
    85       75           0
    86        7           2
    86       15           1
    86       27           3
    86       61           4
    86       64           4
    86       67           1
    86       83           1
    86       89           1
    86       91           3
    86       95           3
    87        5           1
    87        9           0
    87       11           4
    87       14           1
    87       37           2
    87       43           2
    87       50           1
    87       55           4
    87       63           0
    87       96           1
    88        9           2
    88       24           3
    88       38           1
    88       56           4
    88       59           2
    88       76           2
    88       79           2
    88       82           4
    88       88           3
    88      100           2
    89        9           4
    89       47           2
    89       51           4
    89       53           4
    89       63           2
    89       67           0
    89       75           2
    89       78           1
    89       81           2
    89       85           2
    90       14           2
    90       20           1
    90       24           0
    90       27           0
    90       41           4
    90       46           3
    90       65           3
    90       70           0
    90       73           4
    90       84           1
    91       30           0
    91       36           1
    91       45           1
    91       46           1
    91       55           4
    91       66           1
    91       75           0
    91       85           1
    91       88           1
    91       95           3
    92       22           1
    92       26           3
    92       31           0
    92       32           2
    92       35           0
    92       50           2
    92       57           4
    92       59           3
    92       60           1
    92       92           4
    93       13           1
    93       16           3
    93       23           2
    93       33           0
    93       52           0
    93       58           3
    93       61           2
    93       77           0
    93       90           1
    93       96           2
    94        8           4
    94       28           3
    94       29           3
    94       43           3
    94       45           4
    94       56           4
    94       58           4
    94       62           4
    94       74           3
    94       79           4
    95        3           1
    95       18           4
    95       27           2
    95       31           2
    95       44           4
    95       45           4
    95       62           1
    95       76           0
    95       88           1
    95       94           4
    96        8           2
    96       21           1
    96       25           1
    96       31           1
    96       33           1
    96       39           1
    96       62           2
    96       70           1
    96       76           0
    96       78           2
    97        3           0
    97        7           2
    97       18           2
    97       50           1
    97       52           2
    97       56           1
    97       71           4
    97       72           4
    97       77           1
    97       98           3
    98       18           2
    98       28           0
    98       33           4
    98       35           2
    98       44           4
    98       58           3
    98       59           1
    98       78           0
    98       84           3
    98       89           2
    99       10           2
    99       14           1
    99       22           1
    99       34           1
    99       49           2
    99       60           1
    99       78           1
    99       85           4
    99       87           0
    99      100           0
   100       12           0
   100       13           1
   100       16           2
   100       25           1
   100       56           3
   100       57           0
   100       59           3
   100       87           2
   100       95           3
   100       98           0
